(declare-fun cmp215.not.i.i_42_101 () (_ BitVec 1))
(declare-fun narrow_42_103 () (_ BitVec 1))
(declare-fun cmp211.i.i_42_100 () (_ BitVec 1))
(declare-fun i142.i.i_42_99 () (_ BitVec 32))
(declare-fun i132.i.i_42_96 () (_ BitVec 32))
(declare-fun i140.i.i_42_98 () (_ BitVec 32))
(declare-fun i134.i.i_42_97 () (_ BitVec 32))
(declare-fun src_reg_42_29 () (_ BitVec 32))
(declare-fun src_reg_42_28 () (_ BitVec 32))
(declare-fun dst_reg_42_11 () (_ BitVec 32))
(declare-fun dst_reg_42_10 () (_ BitVec 32))
(declare-fun i30.i32_42_95 () (_ BitVec 32))
(declare-fun i29.i29_42_94 () (_ BitVec 32))
(declare-fun i28.i26_42_93 () (_ BitVec 32))
(declare-fun src_reg_42_27 () (_ BitVec 32))
(declare-fun i27.i23_42_92 () (_ BitVec 32))
(declare-fun src_reg_42_26 () (_ BitVec 32))
(declare-fun i26.i20_42_91 () (_ BitVec 64))
(declare-fun src_reg_42_25 () (_ BitVec 64))
(declare-fun i25.i17_42_90 () (_ BitVec 64))
(declare-fun src_reg_42_24 () (_ BitVec 64))
(declare-fun i24.i14_42_89 () (_ BitVec 64))
(declare-fun src_reg_42_23 () (_ BitVec 64))
(declare-fun i23.i11_42_88 () (_ BitVec 64))
(declare-fun src_reg_42_22 () (_ BitVec 64))
(declare-fun i22.i8_42_87 () (_ BitVec 64))
(declare-fun src_reg_42_21 () (_ BitVec 64))
(declare-fun i21.i5_42_86 () (_ BitVec 64))
(declare-fun src_reg_42_20 () (_ BitVec 64))
(declare-fun i.i2_42_85 () (_ BitVec 32))
(declare-fun i30.i_42_84 () (_ BitVec 32))
(declare-fun i29.i_42_83 () (_ BitVec 32))
(declare-fun i28.i_42_82 () (_ BitVec 32))
(declare-fun dst_reg_42_9 () (_ BitVec 32))
(declare-fun i27.i_42_81 () (_ BitVec 32))
(declare-fun dst_reg_42_8 () (_ BitVec 32))
(declare-fun i26.i_42_80 () (_ BitVec 64))
(declare-fun dst_reg_42_7 () (_ BitVec 64))
(declare-fun i25.i_42_79 () (_ BitVec 64))
(declare-fun dst_reg_42_6 () (_ BitVec 64))
(declare-fun i24.i_42_78 () (_ BitVec 64))
(declare-fun dst_reg_42_5 () (_ BitVec 64))
(declare-fun i23.i_42_77 () (_ BitVec 64))
(declare-fun dst_reg_42_4 () (_ BitVec 64))
(declare-fun i22.i_42_76 () (_ BitVec 64))
(declare-fun dst_reg_42_3 () (_ BitVec 64))
(declare-fun i21.i_42_75 () (_ BitVec 64))
(declare-fun dst_reg_42_2 () (_ BitVec 64))
(declare-fun i.i_42_74 () (_ BitVec 32))
(declare-fun other_branch_src_reg_42_71 () (_ BitVec 8))
(declare-fun other_branch_src_reg_42_70 () (_ BitVec 32))
(declare-fun other_branch_src_reg_42_69 () (_ BitVec 32))
(declare-fun other_branch_src_reg_42_68 () (_ BitVec 32))
(declare-fun other_branch_src_reg_42_67 () (_ BitVec 32))
(declare-fun other_branch_src_reg_42_66 () (_ BitVec 32))
(declare-fun other_branch_src_reg_42_65 () (_ BitVec 32))
(declare-fun other_branch_src_reg_42_64 () (_ BitVec 32))
(declare-fun other_branch_src_reg_42_63 () (_ BitVec 32))
(declare-fun other_branch_src_reg_42_62 () (_ BitVec 32))
(declare-fun other_branch_src_reg_42_61 () (_ BitVec 64))
(declare-fun other_branch_src_reg_42_60 () (_ BitVec 64))
(declare-fun other_branch_src_reg_42_59 () (_ BitVec 64))
(declare-fun other_branch_src_reg_42_58 () (_ BitVec 64))
(declare-fun other_branch_src_reg_42_57 () (_ BitVec 64))
(declare-fun other_branch_src_reg_42_56 () (_ BitVec 64))
(declare-fun other_branch_src_reg_42_55 () (_ BitVec 32))
(declare-fun other_branch_src_reg_42_54 () (_ BitVec 32))
(declare-fun other_branch_dst_reg_42_53 () (_ BitVec 8))
(declare-fun other_branch_dst_reg_42_52 () (_ BitVec 32))
(declare-fun other_branch_dst_reg_42_51 () (_ BitVec 32))
(declare-fun other_branch_dst_reg_42_50 () (_ BitVec 32))
(declare-fun other_branch_dst_reg_42_49 () (_ BitVec 32))
(declare-fun other_branch_dst_reg_42_48 () (_ BitVec 32))
(declare-fun other_branch_dst_reg_42_47 () (_ BitVec 32))
(declare-fun other_branch_dst_reg_42_46 () (_ BitVec 32))
(declare-fun other_branch_dst_reg_42_45 () (_ BitVec 32))
(declare-fun other_branch_dst_reg_42_44 () (_ BitVec 32))
(declare-fun other_branch_dst_reg_42_43 () (_ BitVec 64))
(declare-fun other_branch_dst_reg_42_42 () (_ BitVec 64))
(declare-fun other_branch_dst_reg_42_41 () (_ BitVec 64))
(declare-fun other_branch_dst_reg_42_40 () (_ BitVec 64))
(declare-fun other_branch_dst_reg_42_39 () (_ BitVec 64))
(declare-fun other_branch_dst_reg_42_38 () (_ BitVec 64))
(declare-fun other_branch_dst_reg_42_37 () (_ BitVec 32))
(declare-fun other_branch_dst_reg_42_36 () (_ BitVec 32))
(declare-fun src_reg_42_35 () (_ BitVec 8))
(declare-fun src_reg_42_34 () (_ BitVec 32))
(declare-fun src_reg_42_33 () (_ BitVec 32))
(declare-fun src_reg_42_32 () (_ BitVec 32))
(declare-fun src_reg_42_31 () (_ BitVec 32))
(declare-fun src_reg_42_30 () (_ BitVec 32))
(declare-fun src_reg_42_19 () (_ BitVec 32))
(declare-fun src_reg_42_18 () (_ BitVec 32))
(declare-fun dst_reg_42_17 () (_ BitVec 8))
(declare-fun dst_reg_42_16 () (_ BitVec 32))
(declare-fun dst_reg_42_15 () (_ BitVec 32))
(declare-fun dst_reg_42_14 () (_ BitVec 32))
(declare-fun dst_reg_42_13 () (_ BitVec 32))
(declare-fun dst_reg_42_12 () (_ BitVec 32))
(declare-fun dst_reg_42_1 () (_ BitVec 32))
(declare-fun dst_reg_42_0 () (_ BitVec 32))
(declare-fun cmp.not.i_42_106 () (_ BitVec 1))
(declare-fun i.i35_42_104 () (_ BitVec 32))
(declare-fun cmp2.not.i_42_109 () (_ BitVec 1))
(declare-fun i1.i_42_107 () (_ BitVec 32))
(declare-fun i357.i509.i_42_124 () (_ BitVec 32))
(declare-fun cond324.i511.i_42_126 () (_ BitVec 32))
(declare-fun add.i507.i_42_123 () (_ BitVec 32))
(declare-fun cmp319.i510.i_42_125 () (_ BitVec 1))
(declare-fun i356.i506.i_42_121 () (_ BitVec 32))
(declare-fun sub.i502.i_42_118 () (_ BitVec 32))
(declare-fun cond314.i504.i_42_120 () (_ BitVec 32))
(declare-fun i354.i499.i_42_115 () (_ BitVec 32))
(declare-fun cmp309.i503.i_42_119 () (_ BitVec 1))
(declare-fun i355.i501.i_42_116 () (_ BitVec 32))
(declare-fun i349.i.i_42_112 () (_ BitVec 32))
(declare-fun cond279.i.i_42_114 () (_ BitVec 32))
(declare-fun cmp274.i.i_42_113 () (_ BitVec 1))
(declare-fun cond269.i.i_42_111 () (_ BitVec 32))
(declare-fun cmp264.i.i_42_110 () (_ BitVec 1))
(declare-fun other_branch_src_reg_42_270 () (_ BitVec 8))
(declare-fun other_branch_src_reg_42_198 () (_ BitVec 8))
(declare-fun other_branch_src_reg_42_269 () (_ BitVec 32))
(declare-fun other_branch_src_reg_42_197 () (_ BitVec 32))
(declare-fun other_branch_src_reg_42_268 () (_ BitVec 32))
(declare-fun other_branch_src_reg_42_196 () (_ BitVec 32))
(declare-fun other_branch_src_reg_42_267 () (_ BitVec 32))
(declare-fun other_branch_src_reg_42_195 () (_ BitVec 32))
(declare-fun other_branch_src_reg_42_266 () (_ BitVec 32))
(declare-fun other_branch_src_reg_42_194 () (_ BitVec 32))
(declare-fun other_branch_src_reg_42_265 () (_ BitVec 32))
(declare-fun other_branch_src_reg_42_193 () (_ BitVec 32))
(declare-fun other_branch_src_reg_42_264 () (_ BitVec 32))
(declare-fun other_branch_src_reg_42_192 () (_ BitVec 32))
(declare-fun other_branch_src_reg_42_263 () (_ BitVec 32))
(declare-fun other_branch_src_reg_42_191 () (_ BitVec 32))
(declare-fun other_branch_src_reg_42_262 () (_ BitVec 32))
(declare-fun other_branch_src_reg_42_190 () (_ BitVec 32))
(declare-fun other_branch_src_reg_42_261 () (_ BitVec 32))
(declare-fun other_branch_src_reg_42_189 () (_ BitVec 32))
(declare-fun other_branch_src_reg_42_260 () (_ BitVec 64))
(declare-fun other_branch_src_reg_42_188 () (_ BitVec 64))
(declare-fun other_branch_src_reg_42_259 () (_ BitVec 64))
(declare-fun other_branch_src_reg_42_187 () (_ BitVec 64))
(declare-fun other_branch_src_reg_42_258 () (_ BitVec 64))
(declare-fun other_branch_src_reg_42_186 () (_ BitVec 64))
(declare-fun other_branch_src_reg_42_257 () (_ BitVec 64))
(declare-fun other_branch_src_reg_42_185 () (_ BitVec 64))
(declare-fun other_branch_src_reg_42_256 () (_ BitVec 64))
(declare-fun other_branch_src_reg_42_184 () (_ BitVec 64))
(declare-fun other_branch_src_reg_42_255 () (_ BitVec 64))
(declare-fun other_branch_src_reg_42_183 () (_ BitVec 64))
(declare-fun other_branch_src_reg_42_254 () (_ BitVec 32))
(declare-fun other_branch_src_reg_42_182 () (_ BitVec 32))
(declare-fun other_branch_src_reg_42_253 () (_ BitVec 32))
(declare-fun other_branch_src_reg_42_181 () (_ BitVec 32))
(declare-fun other_branch_dst_reg_42_252 () (_ BitVec 8))
(declare-fun other_branch_dst_reg_42_180 () (_ BitVec 8))
(declare-fun other_branch_dst_reg_42_251 () (_ BitVec 32))
(declare-fun other_branch_dst_reg_42_179 () (_ BitVec 32))
(declare-fun other_branch_dst_reg_42_250 () (_ BitVec 32))
(declare-fun other_branch_dst_reg_42_178 () (_ BitVec 32))
(declare-fun other_branch_dst_reg_42_249 () (_ BitVec 32))
(declare-fun other_branch_dst_reg_42_177 () (_ BitVec 32))
(declare-fun other_branch_dst_reg_42_248 () (_ BitVec 32))
(declare-fun other_branch_dst_reg_42_176 () (_ BitVec 32))
(declare-fun other_branch_dst_reg_42_247 () (_ BitVec 32))
(declare-fun other_branch_dst_reg_42_175 () (_ BitVec 32))
(declare-fun other_branch_dst_reg_42_246 () (_ BitVec 32))
(declare-fun other_branch_dst_reg_42_174 () (_ BitVec 32))
(declare-fun other_branch_dst_reg_42_245 () (_ BitVec 32))
(declare-fun other_branch_dst_reg_42_173 () (_ BitVec 32))
(declare-fun other_branch_dst_reg_42_244 () (_ BitVec 32))
(declare-fun other_branch_dst_reg_42_172 () (_ BitVec 32))
(declare-fun other_branch_dst_reg_42_243 () (_ BitVec 32))
(declare-fun other_branch_dst_reg_42_171 () (_ BitVec 32))
(declare-fun other_branch_dst_reg_42_242 () (_ BitVec 64))
(declare-fun other_branch_dst_reg_42_170 () (_ BitVec 64))
(declare-fun other_branch_dst_reg_42_241 () (_ BitVec 64))
(declare-fun other_branch_dst_reg_42_169 () (_ BitVec 64))
(declare-fun other_branch_dst_reg_42_240 () (_ BitVec 64))
(declare-fun other_branch_dst_reg_42_168 () (_ BitVec 64))
(declare-fun other_branch_dst_reg_42_239 () (_ BitVec 64))
(declare-fun other_branch_dst_reg_42_167 () (_ BitVec 64))
(declare-fun other_branch_dst_reg_42_238 () (_ BitVec 64))
(declare-fun other_branch_dst_reg_42_166 () (_ BitVec 64))
(declare-fun other_branch_dst_reg_42_237 () (_ BitVec 64))
(declare-fun other_branch_dst_reg_42_165 () (_ BitVec 64))
(declare-fun other_branch_dst_reg_42_236 () (_ BitVec 32))
(declare-fun other_branch_dst_reg_42_164 () (_ BitVec 32))
(declare-fun other_branch_dst_reg_42_235 () (_ BitVec 32))
(declare-fun other_branch_dst_reg_42_163 () (_ BitVec 32))
(declare-fun src_reg_42_234 () (_ BitVec 8))
(declare-fun src_reg_42_162 () (_ BitVec 8))
(declare-fun src_reg_42_233 () (_ BitVec 32))
(declare-fun src_reg_42_161 () (_ BitVec 32))
(declare-fun src_reg_42_232 () (_ BitVec 32))
(declare-fun src_reg_42_160 () (_ BitVec 32))
(declare-fun src_reg_42_231 () (_ BitVec 32))
(declare-fun src_reg_42_159 () (_ BitVec 32))
(declare-fun src_reg_42_230 () (_ BitVec 32))
(declare-fun src_reg_42_158 () (_ BitVec 32))
(declare-fun src_reg_42_229 () (_ BitVec 32))
(declare-fun src_reg_42_157 () (_ BitVec 32))
(declare-fun src_reg_42_228 () (_ BitVec 32))
(declare-fun src_reg_42_156 () (_ BitVec 32))
(declare-fun src_reg_42_227 () (_ BitVec 32))
(declare-fun src_reg_42_155 () (_ BitVec 32))
(declare-fun src_reg_42_226 () (_ BitVec 32))
(declare-fun src_reg_42_154 () (_ BitVec 32))
(declare-fun src_reg_42_225 () (_ BitVec 32))
(declare-fun src_reg_42_153 () (_ BitVec 32))
(declare-fun src_reg_42_224 () (_ BitVec 64))
(declare-fun src_reg_42_152 () (_ BitVec 64))
(declare-fun src_reg_42_223 () (_ BitVec 64))
(declare-fun src_reg_42_151 () (_ BitVec 64))
(declare-fun src_reg_42_222 () (_ BitVec 64))
(declare-fun src_reg_42_150 () (_ BitVec 64))
(declare-fun src_reg_42_221 () (_ BitVec 64))
(declare-fun src_reg_42_149 () (_ BitVec 64))
(declare-fun src_reg_42_220 () (_ BitVec 64))
(declare-fun src_reg_42_148 () (_ BitVec 64))
(declare-fun src_reg_42_219 () (_ BitVec 64))
(declare-fun src_reg_42_147 () (_ BitVec 64))
(declare-fun src_reg_42_218 () (_ BitVec 32))
(declare-fun src_reg_42_146 () (_ BitVec 32))
(declare-fun src_reg_42_217 () (_ BitVec 32))
(declare-fun src_reg_42_145 () (_ BitVec 32))
(declare-fun dst_reg_42_216 () (_ BitVec 8))
(declare-fun dst_reg_42_144 () (_ BitVec 8))
(declare-fun dst_reg_42_215 () (_ BitVec 32))
(declare-fun dst_reg_42_143 () (_ BitVec 32))
(declare-fun dst_reg_42_214 () (_ BitVec 32))
(declare-fun dst_reg_42_142 () (_ BitVec 32))
(declare-fun dst_reg_42_213 () (_ BitVec 32))
(declare-fun dst_reg_42_141 () (_ BitVec 32))
(declare-fun dst_reg_42_212 () (_ BitVec 32))
(declare-fun dst_reg_42_140 () (_ BitVec 32))
(declare-fun dst_reg_42_211 () (_ BitVec 32))
(declare-fun dst_reg_42_139 () (_ BitVec 32))
(declare-fun dst_reg_42_210 () (_ BitVec 32))
(declare-fun dst_reg_42_138 () (_ BitVec 32))
(declare-fun dst_reg_42_209 () (_ BitVec 32))
(declare-fun dst_reg_42_137 () (_ BitVec 32))
(declare-fun dst_reg_42_208 () (_ BitVec 32))
(declare-fun dst_reg_42_136 () (_ BitVec 32))
(declare-fun dst_reg_42_207 () (_ BitVec 32))
(declare-fun dst_reg_42_135 () (_ BitVec 32))
(declare-fun dst_reg_42_206 () (_ BitVec 64))
(declare-fun dst_reg_42_134 () (_ BitVec 64))
(declare-fun dst_reg_42_205 () (_ BitVec 64))
(declare-fun dst_reg_42_133 () (_ BitVec 64))
(declare-fun dst_reg_42_204 () (_ BitVec 64))
(declare-fun dst_reg_42_132 () (_ BitVec 64))
(declare-fun dst_reg_42_203 () (_ BitVec 64))
(declare-fun dst_reg_42_131 () (_ BitVec 64))
(declare-fun dst_reg_42_202 () (_ BitVec 64))
(declare-fun dst_reg_42_130 () (_ BitVec 64))
(declare-fun dst_reg_42_201 () (_ BitVec 64))
(declare-fun dst_reg_42_129 () (_ BitVec 64))
(declare-fun dst_reg_42_200 () (_ BitVec 32))
(declare-fun dst_reg_42_128 () (_ BitVec 32))
(declare-fun dst_reg_42_199 () (_ BitVec 32))
(declare-fun dst_reg_42_127 () (_ BitVec 32))
(assert (let ((a!1 (and (= cmp2.not.i_42_109 #b1)
                (and (= cmp.not.i_42_106 #b1) (= narrow_42_103 #b0))))
      (a!2 (and (= cmp2.not.i_42_109 #b0)
                (and (= cmp.not.i_42_106 #b1) (= narrow_42_103 #b0))))
      (a!3 (and (= i.i2_42_85 other_branch_src_reg_42_181)
                (= other_branch_src_reg_42_55 other_branch_src_reg_42_182)
                (= i21.i5_42_86 other_branch_src_reg_42_183)
                (= i22.i8_42_87 other_branch_src_reg_42_184)
                (= i23.i11_42_88 other_branch_src_reg_42_185)
                (= i24.i14_42_89 other_branch_src_reg_42_186)
                (= i25.i17_42_90 other_branch_src_reg_42_187)
                (= i26.i20_42_91 other_branch_src_reg_42_188)
                (= i27.i23_42_92 other_branch_src_reg_42_189)
                (= i28.i26_42_93 other_branch_src_reg_42_190)
                (= i29.i29_42_94 other_branch_src_reg_42_191)
                (= i30.i32_42_95 other_branch_src_reg_42_192)
                (= other_branch_src_reg_42_66 other_branch_src_reg_42_193)
                (= other_branch_src_reg_42_67 other_branch_src_reg_42_194)
                (= other_branch_src_reg_42_68 other_branch_src_reg_42_195)
                (= other_branch_src_reg_42_69 other_branch_src_reg_42_196)
                (= other_branch_src_reg_42_70 other_branch_src_reg_42_197)
                (= other_branch_src_reg_42_71 other_branch_src_reg_42_198)
                (= i.i_42_74 other_branch_dst_reg_42_163)
                (= other_branch_dst_reg_42_37 other_branch_dst_reg_42_164)
                (= i21.i_42_75 other_branch_dst_reg_42_165)
                (= i22.i_42_76 other_branch_dst_reg_42_166)
                (= i23.i_42_77 other_branch_dst_reg_42_167)
                (= i24.i_42_78 other_branch_dst_reg_42_168)
                (= i25.i_42_79 other_branch_dst_reg_42_169)
                (= i26.i_42_80 other_branch_dst_reg_42_170)
                (= i27.i_42_81 other_branch_dst_reg_42_171)
                (= i28.i_42_82 other_branch_dst_reg_42_172)
                (= i29.i_42_83 other_branch_dst_reg_42_173)
                (= i30.i_42_84 other_branch_dst_reg_42_174)
                (= other_branch_dst_reg_42_48 other_branch_dst_reg_42_175)
                (= other_branch_dst_reg_42_49 other_branch_dst_reg_42_176)
                (= other_branch_dst_reg_42_50 other_branch_dst_reg_42_177)
                (= other_branch_dst_reg_42_51 other_branch_dst_reg_42_178)
                (= other_branch_dst_reg_42_52 other_branch_dst_reg_42_179)
                (= other_branch_dst_reg_42_53 other_branch_dst_reg_42_180)
                (= #x00000001 src_reg_42_145)
                (= src_reg_42_19 src_reg_42_146)
                (= src_reg_42_20 src_reg_42_147)
                (= src_reg_42_21 src_reg_42_148)
                (= src_reg_42_22 src_reg_42_149)
                (= src_reg_42_23 src_reg_42_150)
                (= src_reg_42_24 src_reg_42_151)
                (= src_reg_42_25 src_reg_42_152)
                (= src_reg_42_26 src_reg_42_153)
                (= src_reg_42_27 src_reg_42_154)
                (= src_reg_42_28 src_reg_42_155)
                (= src_reg_42_29 src_reg_42_156)
                (= src_reg_42_30 src_reg_42_157)
                (= src_reg_42_31 src_reg_42_158)
                (= src_reg_42_32 src_reg_42_159)
                (= src_reg_42_33 src_reg_42_160)
                (= src_reg_42_34 src_reg_42_161)
                (= src_reg_42_35 src_reg_42_162)
                (= #x00000001 dst_reg_42_127)
                (= dst_reg_42_1 dst_reg_42_128)
                (= dst_reg_42_2 dst_reg_42_129)
                (= dst_reg_42_3 dst_reg_42_130)
                (= dst_reg_42_4 dst_reg_42_131)
                (= dst_reg_42_5 dst_reg_42_132)
                (= dst_reg_42_6 dst_reg_42_133)
                (= dst_reg_42_7 dst_reg_42_134)
                (= dst_reg_42_8 dst_reg_42_135)
                (= dst_reg_42_9 dst_reg_42_136)
                (= dst_reg_42_10 dst_reg_42_137)
                (= dst_reg_42_11 dst_reg_42_138)
                (= dst_reg_42_12 dst_reg_42_139)
                (= dst_reg_42_13 dst_reg_42_140)
                (= dst_reg_42_14 dst_reg_42_141)
                (= dst_reg_42_15 dst_reg_42_142)
                (= dst_reg_42_16 dst_reg_42_143)
                (= dst_reg_42_17 dst_reg_42_144)))
      (a!7 (=> (and (= cmp.not.i_42_106 #b1) (= narrow_42_103 #b0))
               (and (= #x00000001 i1.i_42_107)
                    (ite (= i1.i_42_107 #x00000001)
                         (= cmp2.not.i_42_109 #b1)
                         (= cmp2.not.i_42_109 #b0)))))
      (a!8 (=> (= narrow_42_103 #b0)
               (and (= #x00000001 i.i35_42_104)
                    (ite (= i.i35_42_104 #x00000001)
                         (= cmp.not.i_42_106 #b1)
                         (= cmp.not.i_42_106 #b0))))))
(let ((a!4 (and (=> (= narrow_42_103 #b1) a!3)
                (=> (and (= cmp.not.i_42_106 #b0) (= narrow_42_103 #b0)) a!3)
                (=> a!2 a!3)
                (=> a!1
                    (and (= i.i2_42_85 other_branch_src_reg_42_181)
                         (= other_branch_src_reg_42_55
                            other_branch_src_reg_42_182)
                         (= i21.i5_42_86 other_branch_src_reg_42_183)
                         (= i22.i8_42_87 other_branch_src_reg_42_184)
                         (= i23.i11_42_88 other_branch_src_reg_42_185)
                         (= i24.i14_42_89 other_branch_src_reg_42_186)
                         (= i25.i17_42_90 other_branch_src_reg_42_187)
                         (= i26.i20_42_91 other_branch_src_reg_42_188)
                         (= i27.i23_42_92 other_branch_src_reg_42_189)
                         (= i28.i26_42_93 other_branch_src_reg_42_190)
                         (= cond324.i511.i_42_126 other_branch_src_reg_42_191)
                         (= i30.i32_42_95 other_branch_src_reg_42_192)
                         (= other_branch_src_reg_42_66
                            other_branch_src_reg_42_193)
                         (= other_branch_src_reg_42_67
                            other_branch_src_reg_42_194)
                         (= other_branch_src_reg_42_68
                            other_branch_src_reg_42_195)
                         (= other_branch_src_reg_42_69
                            other_branch_src_reg_42_196)
                         (= other_branch_src_reg_42_70
                            other_branch_src_reg_42_197)
                         (= other_branch_src_reg_42_71
                            other_branch_src_reg_42_198)
                         (= i.i_42_74 other_branch_dst_reg_42_163)
                         (= other_branch_dst_reg_42_37
                            other_branch_dst_reg_42_164)
                         (= i21.i_42_75 other_branch_dst_reg_42_165)
                         (= i22.i_42_76 other_branch_dst_reg_42_166)
                         (= i23.i_42_77 other_branch_dst_reg_42_167)
                         (= i24.i_42_78 other_branch_dst_reg_42_168)
                         (= i25.i_42_79 other_branch_dst_reg_42_169)
                         (= i26.i_42_80 other_branch_dst_reg_42_170)
                         (= i27.i_42_81 other_branch_dst_reg_42_171)
                         (= i28.i_42_82 other_branch_dst_reg_42_172)
                         (= i29.i_42_83 other_branch_dst_reg_42_173)
                         (= cond314.i504.i_42_120 other_branch_dst_reg_42_174)
                         (= other_branch_dst_reg_42_48
                            other_branch_dst_reg_42_175)
                         (= other_branch_dst_reg_42_49
                            other_branch_dst_reg_42_176)
                         (= other_branch_dst_reg_42_50
                            other_branch_dst_reg_42_177)
                         (= other_branch_dst_reg_42_51
                            other_branch_dst_reg_42_178)
                         (= other_branch_dst_reg_42_52
                            other_branch_dst_reg_42_179)
                         (= other_branch_dst_reg_42_53
                            other_branch_dst_reg_42_180)
                         (= #x00000001 src_reg_42_145)
                         (= src_reg_42_19 src_reg_42_146)
                         (= src_reg_42_20 src_reg_42_147)
                         (= src_reg_42_21 src_reg_42_148)
                         (= src_reg_42_22 src_reg_42_149)
                         (= src_reg_42_23 src_reg_42_150)
                         (= src_reg_42_24 src_reg_42_151)
                         (= src_reg_42_25 src_reg_42_152)
                         (= src_reg_42_26 src_reg_42_153)
                         (= src_reg_42_27 src_reg_42_154)
                         (= src_reg_42_28 src_reg_42_155)
                         (= cond269.i.i_42_111 src_reg_42_156)
                         (= src_reg_42_30 src_reg_42_157)
                         (= src_reg_42_31 src_reg_42_158)
                         (= src_reg_42_32 src_reg_42_159)
                         (= src_reg_42_33 src_reg_42_160)
                         (= src_reg_42_34 src_reg_42_161)
                         (= src_reg_42_35 src_reg_42_162)
                         (= #x00000001 dst_reg_42_127)
                         (= dst_reg_42_1 dst_reg_42_128)
                         (= dst_reg_42_2 dst_reg_42_129)
                         (= dst_reg_42_3 dst_reg_42_130)
                         (= dst_reg_42_4 dst_reg_42_131)
                         (= dst_reg_42_5 dst_reg_42_132)
                         (= dst_reg_42_6 dst_reg_42_133)
                         (= dst_reg_42_7 dst_reg_42_134)
                         (= dst_reg_42_8 dst_reg_42_135)
                         (= dst_reg_42_9 dst_reg_42_136)
                         (= cond279.i.i_42_114 dst_reg_42_137)
                         (= dst_reg_42_11 dst_reg_42_138)
                         (= dst_reg_42_12 dst_reg_42_139)
                         (= dst_reg_42_13 dst_reg_42_140)
                         (= dst_reg_42_14 dst_reg_42_141)
                         (= dst_reg_42_15 dst_reg_42_142)
                         (= dst_reg_42_16 dst_reg_42_143)
                         (= dst_reg_42_17 dst_reg_42_144)))
                (= dst_reg_42_127 dst_reg_42_199)
                (= dst_reg_42_128 dst_reg_42_200)
                (= dst_reg_42_129 dst_reg_42_201)
                (= dst_reg_42_130 dst_reg_42_202)
                (= dst_reg_42_131 dst_reg_42_203)
                (= dst_reg_42_132 dst_reg_42_204)
                (= dst_reg_42_133 dst_reg_42_205)
                (= dst_reg_42_134 dst_reg_42_206)
                (= dst_reg_42_135 dst_reg_42_207)
                (= dst_reg_42_136 dst_reg_42_208)
                (= dst_reg_42_137 dst_reg_42_209)
                (= dst_reg_42_138 dst_reg_42_210)
                (= dst_reg_42_139 dst_reg_42_211)
                (= dst_reg_42_140 dst_reg_42_212)
                (= dst_reg_42_141 dst_reg_42_213)
                (= dst_reg_42_142 dst_reg_42_214)
                (= dst_reg_42_143 dst_reg_42_215)
                (= dst_reg_42_144 dst_reg_42_216)
                (= src_reg_42_145 src_reg_42_217)
                (= src_reg_42_146 src_reg_42_218)
                (= src_reg_42_147 src_reg_42_219)
                (= src_reg_42_148 src_reg_42_220)
                (= src_reg_42_149 src_reg_42_221)
                (= src_reg_42_150 src_reg_42_222)
                (= src_reg_42_151 src_reg_42_223)
                (= src_reg_42_152 src_reg_42_224)
                (= src_reg_42_153 src_reg_42_225)
                (= src_reg_42_154 src_reg_42_226)
                (= src_reg_42_155 src_reg_42_227)
                (= src_reg_42_156 src_reg_42_228)
                (= src_reg_42_157 src_reg_42_229)
                (= src_reg_42_158 src_reg_42_230)
                (= src_reg_42_159 src_reg_42_231)
                (= src_reg_42_160 src_reg_42_232)
                (= src_reg_42_161 src_reg_42_233)
                (= src_reg_42_162 src_reg_42_234)
                (= other_branch_dst_reg_42_163 other_branch_dst_reg_42_235)
                (= other_branch_dst_reg_42_164 other_branch_dst_reg_42_236)
                (= other_branch_dst_reg_42_165 other_branch_dst_reg_42_237)
                (= other_branch_dst_reg_42_166 other_branch_dst_reg_42_238)
                (= other_branch_dst_reg_42_167 other_branch_dst_reg_42_239)
                (= other_branch_dst_reg_42_168 other_branch_dst_reg_42_240)
                (= other_branch_dst_reg_42_169 other_branch_dst_reg_42_241)
                (= other_branch_dst_reg_42_170 other_branch_dst_reg_42_242)
                (= other_branch_dst_reg_42_171 other_branch_dst_reg_42_243)
                (= other_branch_dst_reg_42_172 other_branch_dst_reg_42_244)
                (= other_branch_dst_reg_42_173 other_branch_dst_reg_42_245)
                (= other_branch_dst_reg_42_174 other_branch_dst_reg_42_246)
                (= other_branch_dst_reg_42_175 other_branch_dst_reg_42_247)
                (= other_branch_dst_reg_42_176 other_branch_dst_reg_42_248)
                (= other_branch_dst_reg_42_177 other_branch_dst_reg_42_249)
                (= other_branch_dst_reg_42_178 other_branch_dst_reg_42_250)
                (= other_branch_dst_reg_42_179 other_branch_dst_reg_42_251)
                (= other_branch_dst_reg_42_180 other_branch_dst_reg_42_252)
                (= other_branch_src_reg_42_181 other_branch_src_reg_42_253)
                (= other_branch_src_reg_42_182 other_branch_src_reg_42_254)
                (= other_branch_src_reg_42_183 other_branch_src_reg_42_255)
                (= other_branch_src_reg_42_184 other_branch_src_reg_42_256)
                (= other_branch_src_reg_42_185 other_branch_src_reg_42_257)
                (= other_branch_src_reg_42_186 other_branch_src_reg_42_258)
                (= other_branch_src_reg_42_187 other_branch_src_reg_42_259)
                (= other_branch_src_reg_42_188 other_branch_src_reg_42_260)
                (= other_branch_src_reg_42_189 other_branch_src_reg_42_261)
                (= other_branch_src_reg_42_190 other_branch_src_reg_42_262)
                (= other_branch_src_reg_42_191 other_branch_src_reg_42_263)
                (= other_branch_src_reg_42_192 other_branch_src_reg_42_264)
                (= other_branch_src_reg_42_193 other_branch_src_reg_42_265)
                (= other_branch_src_reg_42_194 other_branch_src_reg_42_266)
                (= other_branch_src_reg_42_195 other_branch_src_reg_42_267)
                (= other_branch_src_reg_42_196 other_branch_src_reg_42_268)
                (= other_branch_src_reg_42_197 other_branch_src_reg_42_269)
                (= other_branch_src_reg_42_198 other_branch_src_reg_42_270)))
      (a!6 (=> a!1
               (and (ite (bvult i142.i.i_42_99 i134.i.i_42_97)
                         (= cmp264.i.i_42_110 #b1)
                         (= cmp264.i.i_42_110 #b0))
                    (ite (= cmp264.i.i_42_110 #b1)
                         (= cond269.i.i_42_111 i142.i.i_42_99)
                         (= cond269.i.i_42_111 i134.i.i_42_97))
                    (= dst_reg_42_10 i349.i.i_42_112)
                    (ite (bvugt i140.i.i_42_98 i349.i.i_42_112)
                         (= cmp274.i.i_42_113 #b1)
                         (= cmp274.i.i_42_113 #b0))
                    (ite (= cmp274.i.i_42_113 #b1)
                         (= cond279.i.i_42_114 i140.i.i_42_98)
                         (= cond279.i.i_42_114 i349.i.i_42_112))
                    (= i30.i_42_84 i354.i499.i_42_115)
                    (= i30.i32_42_95 i355.i501.i_42_116)
                    (= sub.i502.i_42_118 (bvadd i355.i501.i_42_116 #xffffffff))
                    (ite (bvult i354.i499.i_42_115 sub.i502.i_42_118)
                         (= cmp309.i503.i_42_119 #b1)
                         (= cmp309.i503.i_42_119 #b0))
                    (ite (= cmp309.i503.i_42_119 #b1)
                         (= cond314.i504.i_42_120 i354.i499.i_42_115)
                         (= cond314.i504.i_42_120 sub.i502.i_42_118))
                    (= i29.i_42_83 i356.i506.i_42_121)
                    (= add.i507.i_42_123 (bvadd i356.i506.i_42_121 #x00000001))
                    (= i29.i29_42_94 i357.i509.i_42_124)
                    (ite (bvugt add.i507.i_42_123 i357.i509.i_42_124)
                         (= cmp319.i510.i_42_125 #b1)
                         (= cmp319.i510.i_42_125 #b0))
                    (ite (= cmp319.i510.i_42_125 #b1)
                         (= cond324.i511.i_42_126 add.i507.i_42_123)
                         (= cond324.i511.i_42_126 i357.i509.i_42_124))))))
(let ((a!5 (=> (or a!1
                   a!2
                   (and (= cmp.not.i_42_106 #b0) (= narrow_42_103 #b0))
                   (= narrow_42_103 #b1))
               a!4)))
  (and a!5
       a!6
       a!7
       a!8
       (= dst_reg_42_0 dst_reg_42_0)
       (= dst_reg_42_1 dst_reg_42_1)
       (= dst_reg_42_2 dst_reg_42_2)
       (= dst_reg_42_3 dst_reg_42_3)
       (= dst_reg_42_4 dst_reg_42_4)
       (= dst_reg_42_5 dst_reg_42_5)
       (= dst_reg_42_6 dst_reg_42_6)
       (= dst_reg_42_7 dst_reg_42_7)
       (= dst_reg_42_8 dst_reg_42_8)
       (= dst_reg_42_9 dst_reg_42_9)
       (= dst_reg_42_10 dst_reg_42_10)
       (= dst_reg_42_11 dst_reg_42_11)
       (= dst_reg_42_12 dst_reg_42_12)
       (= dst_reg_42_13 dst_reg_42_13)
       (= dst_reg_42_14 dst_reg_42_14)
       (= dst_reg_42_15 dst_reg_42_15)
       (= dst_reg_42_16 dst_reg_42_16)
       (= dst_reg_42_17 dst_reg_42_17)
       (= src_reg_42_18 src_reg_42_18)
       (= src_reg_42_19 src_reg_42_19)
       (= src_reg_42_20 src_reg_42_20)
       (= src_reg_42_21 src_reg_42_21)
       (= src_reg_42_22 src_reg_42_22)
       (= src_reg_42_23 src_reg_42_23)
       (= src_reg_42_24 src_reg_42_24)
       (= src_reg_42_25 src_reg_42_25)
       (= src_reg_42_26 src_reg_42_26)
       (= src_reg_42_27 src_reg_42_27)
       (= src_reg_42_28 src_reg_42_28)
       (= src_reg_42_29 src_reg_42_29)
       (= src_reg_42_30 src_reg_42_30)
       (= src_reg_42_31 src_reg_42_31)
       (= src_reg_42_32 src_reg_42_32)
       (= src_reg_42_33 src_reg_42_33)
       (= src_reg_42_34 src_reg_42_34)
       (= src_reg_42_35 src_reg_42_35)
       (= other_branch_dst_reg_42_36 other_branch_dst_reg_42_36)
       (= other_branch_dst_reg_42_37 other_branch_dst_reg_42_37)
       (= other_branch_dst_reg_42_38 other_branch_dst_reg_42_38)
       (= other_branch_dst_reg_42_39 other_branch_dst_reg_42_39)
       (= other_branch_dst_reg_42_40 other_branch_dst_reg_42_40)
       (= other_branch_dst_reg_42_41 other_branch_dst_reg_42_41)
       (= other_branch_dst_reg_42_42 other_branch_dst_reg_42_42)
       (= other_branch_dst_reg_42_43 other_branch_dst_reg_42_43)
       (= other_branch_dst_reg_42_44 other_branch_dst_reg_42_44)
       (= other_branch_dst_reg_42_45 other_branch_dst_reg_42_45)
       (= other_branch_dst_reg_42_46 other_branch_dst_reg_42_46)
       (= other_branch_dst_reg_42_47 other_branch_dst_reg_42_47)
       (= other_branch_dst_reg_42_48 other_branch_dst_reg_42_48)
       (= other_branch_dst_reg_42_49 other_branch_dst_reg_42_49)
       (= other_branch_dst_reg_42_50 other_branch_dst_reg_42_50)
       (= other_branch_dst_reg_42_51 other_branch_dst_reg_42_51)
       (= other_branch_dst_reg_42_52 other_branch_dst_reg_42_52)
       (= other_branch_dst_reg_42_53 other_branch_dst_reg_42_53)
       (= other_branch_src_reg_42_54 other_branch_src_reg_42_54)
       (= other_branch_src_reg_42_55 other_branch_src_reg_42_55)
       (= other_branch_src_reg_42_56 other_branch_src_reg_42_56)
       (= other_branch_src_reg_42_57 other_branch_src_reg_42_57)
       (= other_branch_src_reg_42_58 other_branch_src_reg_42_58)
       (= other_branch_src_reg_42_59 other_branch_src_reg_42_59)
       (= other_branch_src_reg_42_60 other_branch_src_reg_42_60)
       (= other_branch_src_reg_42_61 other_branch_src_reg_42_61)
       (= other_branch_src_reg_42_62 other_branch_src_reg_42_62)
       (= other_branch_src_reg_42_63 other_branch_src_reg_42_63)
       (= other_branch_src_reg_42_64 other_branch_src_reg_42_64)
       (= other_branch_src_reg_42_65 other_branch_src_reg_42_65)
       (= other_branch_src_reg_42_66 other_branch_src_reg_42_66)
       (= other_branch_src_reg_42_67 other_branch_src_reg_42_67)
       (= other_branch_src_reg_42_68 other_branch_src_reg_42_68)
       (= other_branch_src_reg_42_69 other_branch_src_reg_42_69)
       (= other_branch_src_reg_42_70 other_branch_src_reg_42_70)
       (= other_branch_src_reg_42_71 other_branch_src_reg_42_71)
       (= #x00000001 i.i_42_74)
       (= dst_reg_42_2 i21.i_42_75)
       (= dst_reg_42_3 i22.i_42_76)
       (= dst_reg_42_4 i23.i_42_77)
       (= dst_reg_42_5 i24.i_42_78)
       (= dst_reg_42_6 i25.i_42_79)
       (= dst_reg_42_7 i26.i_42_80)
       (= dst_reg_42_8 i27.i_42_81)
       (= dst_reg_42_9 i28.i_42_82)
       (= dst_reg_42_10 i29.i_42_83)
       (= dst_reg_42_11 i30.i_42_84)
       (= #x00000001 i.i2_42_85)
       (= src_reg_42_20 i21.i5_42_86)
       (= src_reg_42_21 i22.i8_42_87)
       (= src_reg_42_22 i23.i11_42_88)
       (= src_reg_42_23 i24.i14_42_89)
       (= src_reg_42_24 i25.i17_42_90)
       (= src_reg_42_25 i26.i20_42_91)
       (= src_reg_42_26 i27.i23_42_92)
       (= src_reg_42_27 i28.i26_42_93)
       (= src_reg_42_28 i29.i29_42_94)
       (= src_reg_42_29 i30.i32_42_95)
       (= dst_reg_42_10 i132.i.i_42_96)
       (= dst_reg_42_11 i134.i.i_42_97)
       (= src_reg_42_28 i140.i.i_42_98)
       (= src_reg_42_29 i142.i.i_42_99)
       (ite (bvult i134.i.i_42_97 i140.i.i_42_98)
            (= cmp211.i.i_42_100 #b1)
            (= cmp211.i.i_42_100 #b0))
       (ite (bvuge i132.i.i_42_96 i142.i.i_42_99)
            (= cmp215.not.i.i_42_101 #b1)
            (= cmp215.not.i.i_42_101 #b0))
       (ite (= cmp211.i.i_42_100 #b1)
            (= narrow_42_103 #b1)
            (= narrow_42_103 cmp215.not.i.i_42_101)))))))

;{"dst_reg":["dst_reg_42_0","dst_reg_42_1",[""],["dst_reg_42_2","dst_reg_42_3"],"dst_reg_42_4","dst_reg_42_5","dst_reg_42_6","dst_reg_42_7","dst_reg_42_8","dst_reg_42_9","dst_reg_42_10","dst_reg_42_11","dst_reg_42_12","dst_reg_42_13","","","dst_reg_42_14","dst_reg_42_15","dst_reg_42_16"],"other_branch_dst_reg":["other_branch_dst_reg_42_36","other_branch_dst_reg_42_37",[""],["other_branch_dst_reg_42_38","other_branch_dst_reg_42_39"],"other_branch_dst_reg_42_40","other_branch_dst_reg_42_41","other_branch_dst_reg_42_42","other_branch_dst_reg_42_43","other_branch_dst_reg_42_44","other_branch_dst_reg_42_45","other_branch_dst_reg_42_46","other_branch_dst_reg_42_47","other_branch_dst_reg_42_48","other_branch_dst_reg_42_49","","","other_branch_dst_reg_42_50","other_branch_dst_reg_42_51","other_branch_dst_reg_42_52"],"other_branch_src_reg":["other_branch_src_reg_42_54","other_branch_src_reg_42_55",[""],["other_branch_src_reg_42_56","other_branch_src_reg_42_57"],"other_branch_src_reg_42_58","other_branch_src_reg_42_59","other_branch_src_reg_42_60","other_branch_src_reg_42_61","other_branch_src_reg_42_62","other_branch_src_reg_42_63","other_branch_src_reg_42_64","other_branch_src_reg_42_65","other_branch_src_reg_42_66","other_branch_src_reg_42_67","","","other_branch_src_reg_42_68","other_branch_src_reg_42_69","other_branch_src_reg_42_70"],"src_reg":["src_reg_42_18","src_reg_42_19",[""],["src_reg_42_20","src_reg_42_21"],"src_reg_42_22","src_reg_42_23","src_reg_42_24","src_reg_42_25","src_reg_42_26","src_reg_42_27","src_reg_42_28","src_reg_42_29","src_reg_42_30","src_reg_42_31","","","src_reg_42_32","src_reg_42_33","src_reg_42_34"]}
;{"dst_reg":["dst_reg_42_199","dst_reg_42_200",[""],["dst_reg_42_201","dst_reg_42_202"],"dst_reg_42_203","dst_reg_42_204","dst_reg_42_205","dst_reg_42_206","dst_reg_42_207","dst_reg_42_208","dst_reg_42_209","dst_reg_42_210","dst_reg_42_211","dst_reg_42_212","","","dst_reg_42_213","dst_reg_42_214","dst_reg_42_215"],"other_branch_dst_reg":["other_branch_dst_reg_42_235","other_branch_dst_reg_42_236",[""],["other_branch_dst_reg_42_237","other_branch_dst_reg_42_238"],"other_branch_dst_reg_42_239","other_branch_dst_reg_42_240","other_branch_dst_reg_42_241","other_branch_dst_reg_42_242","other_branch_dst_reg_42_243","other_branch_dst_reg_42_244","other_branch_dst_reg_42_245","other_branch_dst_reg_42_246","other_branch_dst_reg_42_247","other_branch_dst_reg_42_248","","","other_branch_dst_reg_42_249","other_branch_dst_reg_42_250","other_branch_dst_reg_42_251"],"other_branch_src_reg":["other_branch_src_reg_42_253","other_branch_src_reg_42_254",[""],["other_branch_src_reg_42_255","other_branch_src_reg_42_256"],"other_branch_src_reg_42_257","other_branch_src_reg_42_258","other_branch_src_reg_42_259","other_branch_src_reg_42_260","other_branch_src_reg_42_261","other_branch_src_reg_42_262","other_branch_src_reg_42_263","other_branch_src_reg_42_264","other_branch_src_reg_42_265","other_branch_src_reg_42_266","","","other_branch_src_reg_42_267","other_branch_src_reg_42_268","other_branch_src_reg_42_269"],"src_reg":["src_reg_42_217","src_reg_42_218",[""],["src_reg_42_219","src_reg_42_220"],"src_reg_42_221","src_reg_42_222","src_reg_42_223","src_reg_42_224","src_reg_42_225","src_reg_42_226","src_reg_42_227","src_reg_42_228","src_reg_42_229","src_reg_42_230","","","src_reg_42_231","src_reg_42_232","src_reg_42_233"]}
